p cnf 96 324
-1 2 -3 0
1 -2 -3 0
-1 -2 3 0
1 2 3 0
-5 1 0
-5 4 0
-1 -4 5 0
6 -3 0
6 -5 0
3 5 -6 0
-4 -7 -8 0
4 7 -8 0
-4 7 8 0
4 -7 8 0
9 8 0
9 3 0
-8 -3 -9 0
-6 9 -10 0
6 -9 -10 0
-6 -9 10 0
6 9 10 0
7 -3 -11 0
-7 3 -11 0
7 3 11 0
-7 -3 11 0
12 -11 0
12 11 0
-15 13 0
-15 -14 0
-13 14 15 0
17 -1 0
17 16 0
1 -16 -17 0
-2 18 -19 0
2 -18 -19 0
-2 -18 19 0
2 18 19 0
-20 17 0
-20 -19 0
-17 19 20 0
-21 4 0
-21 20 0
-4 -20 21 0
22 15 0
22 21 0
-15 -21 -22 0
-23 -4 0
-23 -7 0
4 7 23 0
22 23 -24 0
-22 -23 -24 0
22 -23 24 0
-22 23 24 0
25 4 0
25 3 0
-4 -3 -25 0
27 25 0
27 26 0
-25 -26 -27 0
29 -28 0
29 -13 0
28 13 -29 0
-29 -30 -31 0
29 30 -31 0
-29 30 31 0
29 -30 31 0
32 -31 0
32 -4 0
31 4 -32 0
33 4 0
33 32 0
-4 -32 -33 0
34 14 0
34 17 0
-14 -17 -34 0
-35 -7 0
-35 34 0
7 -34 35 0
36 16 0
36 -17 0
-16 17 -36 0
-2 3 -38 0
2 -3 -38 0
-2 -3 38 0
2 3 38 0
-39 37 0
-39 38 0
-37 -38 39 0
-40 36 0
-40 39 0
-36 -39 40 0
-41 -35 0
-41 -40 0
35 40 41 0
42 33 0
42 41 0
-33 -41 -42 0
43 27 0
43 -42 0
-27 42 -43 0
-24 -43 -44 0
24 43 -44 0
-24 43 44 0
24 -43 44 0
12 -44 -45 0
-12 44 -45 0
12 44 45 0
-12 -44 45 0
-46 8 0
-46 17 0
-8 -17 46 0
-47 31 0
-47 46 0
-31 -46 47 0
-48 -47 0
-48 -47 0
47 48 0
21 -20 -49 0
-21 20 -49 0
21 20 49 0
-21 -20 49 0
-50 -16 0
-50 -49 0
16 49 50 0
51 38 0
51 3 0
-38 -3 -51 0
52 -51 0
52 5 0
51 -5 -52 0
53 52 0
53 18 0
-52 -18 -53 0
50 53 -54 0
-50 -53 -54 0
50 -53 54 0
-50 53 54 0
55 -48 0
55 -54 0
48 54 -55 0
56 -45 0
56 55 0
45 -55 -56 0
57 -8 0
57 -1 0
8 1 -57 0
19 -14 -58 0
-19 14 -58 0
19 14 58 0
-19 -14 58 0
57 58 -59 0
-57 -58 -59 0
57 -58 59 0
-57 58 59 0
61 -38 -62 0
-61 38 -62 0
61 38 62 0
-61 -38 62 0
-62 -37 -63 0
62 37 -63 0
-62 37 63 0
62 -37 63 0
-64 3 0
-64 -63 0
-3 63 64 0
-65 -64 0
-65 32 0
64 -32 65 0
66 -60 0
66 65 0
60 -65 -66 0
67 46 0
67 -5 0
-46 5 -67 0
-66 -67 -68 0
66 67 -68 0
-66 67 68 0
66 -67 68 0
69 59 0
69 68 0
-59 -68 -69 0
70 -19 0
70 -36 0
19 36 -70 0
-71 -70 0
-71 31 0
70 -31 71 0
-51 61 -72 0
51 -61 -72 0
-51 -61 72 0
51 61 72 0
73 -17 0
73 -38 0
17 38 -73 0
-74 2 0
-74 -4 0
-2 4 74 0
-75 -74 0
-75 3 0
74 -3 75 0
-76 73 0
-76 -75 0
-73 75 76 0
-77 76 0
-77 -46 0
-76 46 77 0
-78 72 0
-78 -77 0
-72 77 78 0
71 78 -79 0
-71 -78 -79 0
71 -78 79 0
-71 78 79 0
69 -79 -80 0
-69 79 -80 0
69 79 80 0
-69 -79 80 0
36 81 0
-36 81 0
82 -36 0
82 -81 0
36 81 -82 0
83 74 0
83 -28 0
-74 28 -83 0
-84 -1 0
-84 15 0
1 -15 84 0
-85 -83 0
-85 -84 0
83 84 85 0
86 29 0
86 29 0
-29 -86 0
-85 -86 -87 0
85 86 -87 0
-85 86 87 0
85 -86 87 0
-88 -82 0
-88 -87 0
82 87 88 0
-89 -80 0
-89 88 0
80 -88 89 0
90 -56 0
90 89 0
56 -89 -90 0
10 -90 -91 0
-10 90 -91 0
10 90 91 0
-10 -90 91 0
-92 20 0
-92 18 0
-20 -18 92 0
-46 29 -93 0
46 -29 -93 0
-46 -29 93 0
46 29 93 0
-93 30 -94 0
93 -30 -94 0
-93 -30 94 0
93 30 94 0
-92 -94 -95 0
92 94 -95 0
-92 94 95 0
92 -94 95 0
96 -91 0
96 -95 0
91 95 -96 0
43 -71 13 41 -49 0
87 79 -45 0
-50 21 26 28 2 0
-35 93 12 83 87 0
76 -52 -94 -65 -96 0
21 -66 -73 5 0
20 -52 -53 62 -14 -37 0
95 -29 81 -15 -94 0
-92 -85 0
-62 12 25 7 -22 0
45 72 -1 -66 -15 -54 0
-88 -41 0
64 -69 0
-18 -21 -72 -43 -84 -1 0
-78 -83 43 0
-17 55 -53 -83 -37 60 0
90 48 5 0
-69 -47 -77 89 0
7 70 0
-72 35 33 0
-95 -7 -34 5 0
-84 -2 -74 19 44 0
-14 60 87 -46 -2 29 0
-50 -51 -20 0
89 5 -44 54 -95 0
63 13 58 -37 0
66 -83 67 0
78 -34 24 0
-36 -39 2 -63 0
75 -11 0
73 -8 -16 0
8 7 -67 0
-22 -70 93 41 0
-86 79 0
78 -17 0
-84 -31 78 91 26 0
-81 -91 43 0
46 55 -79 4 54 0
-62 65 9 0
-58 96 0
76 -48 0
-83 -10 0
-51 -60 70 0
63 92 64 -38 -33 0
9 58 13 -30 68 -24 0
32 -84 -82 0
11 55 -96 76 0
-16 19 27 17 32 0
86 -3 0
-2 -5 0
26 45 93 0
-84 56 81 95 39 0
29 -81 85 -28 0
11 -73 -67 -20 -9 0
96 0
